outputs/case_137.model.txt
loan_secured = 0
special_provision_increase_required = False
loan_class_7_overdue_unsecured_amounts = 0
capital_fund = 20000000
owner_equity_total = 15000000
government_claim = -100
life_insurance_loan = 0
premium_advance = 0
loan_asset_agreement_reschedule = 0
self_use_real_estate_amount = 0
loan_class_4_amount = 0
loan_credit_bad = 0
violation_138_5_flag = False
overdue_months = 0
social_housing_rental_only = False
violation_138_3_flag = False
loan_class_5_amount = 0
gaap_evaluation_amount = 1/2
loan_class_1_amount = 0
real_estate_investment_total = 10000000
provision_amount = 0
loan_class_2_amount = 0
loan_class_3_amount = 0
loan_asset_classification = 0
violation_138_2_4_5_7_138_3_1_2_3 = False
real_estate_social_housing_exemption = False
violation_146_6_1_2_3_flag = False
real_estate_valuation_done = True
violation_146_1_1_2_3_5_flag = False
violation_146_3_8_loans_unsecured = False
real_estate_valuation_compliance = True
violation_146_1_2_3_4_5_6_7_9 = False
loan_provision_minimum = 0
violation_146_investment = False
violation_143 = False
violation_146_3_8_loans_approval = False
loan_asset_classification_exclusion = 1
violation_138_5 = False
violation_146_3_1_2_4_flag = False
violation_146_5_1_flag = False
loans_approval_flag = False
violation_143_5_and_143_6_measures = False
violation_138_business_scope = False
violation_143_5_flag = False
violation_146_7_loans_limits = False
violation_146_5_3_4_flag = False
loans_limits_flag = False
loan_provision_minimum_gaap = 0
violation_143_flag = False
real_estate_investment_limit = 0
violation_146_5_post_flag = False
violation_138_3_1_flag = False
violation_138_1 = False
violation_146_4_1_2_3_flag = False
violation_138_2_2_flag = False
violation_138_1_flag = False
violation_138_3_3_flag = False
violation_138_3_2_flag = False
violation_138_2_7_flag = False
violation_138_2_5_flag = False
penalty = False
violation_138_2_4_flag = False
violation_143_6_measures_flag = False
violation_146_1_1_3_5_7_6_flag = False
violation_138_3 = False
violation_146_9_1_2_3_flag = False
violation_146_1_8_flag = False
violation_146_2_1_2_4_flag = False
loan_provision_special_increase = 0
loans_unsecured_flag = False